param N := 4;
param M := 50;

param nu := 1.0;

param X : 1 2 3 4 :=
1 7.9 3.8 6.4 2.0
2 6.7 3.0 5.0 1.7
3 6.4 2.8 5.6 2.2
4 7.2 3.6 6.1 2.5
5 5.9 3.0 5.1 1.8
6 6.4 3.2 5.3 2.3
7 6.4 3.1 5.5 1.8
8 5.5 2.4 3.8 1.1
9 5.7 2.8 4.1 1.3
10 5.7 2.5 5.0 2.0
11 6.3 2.5 5.0 1.9
12 6.1 3.0 4.9 1.8
13 6.5 3.2 5.1 2.0
14 6.7 3.3 5.7 2.1
15 6.4 2.9 4.3 1.3
16 6.5 2.8 4.6 1.5
17 6.8 3.2 5.9 2.3
18 6.7 2.5 5.8 1.8
19 6.5 3.0 5.5 1.8
20 7.7 2.8 6.7 2.0
21 7.2 3.0 5.8 1.6
22 7.1 3.0 5.9 2.1
23 6.0 2.7 5.1 1.6
24 5.2 2.7 3.9 1.4
25 5.6 2.5 3.9 1.1
26 5.8 2.7 3.9 1.2
27 6.3 3.4 5.6 2.4
28 5.4 3.0 4.5 1.5
29 6.0 3.4 4.5 1.6
30 5.8 2.7 5.1 1.9
31 6.8 2.8 4.8 1.4
32 6.7 3.3 5.7 2.5
33 6.2 2.9 4.3 1.3
34 6.3 2.3 4.4 1.3
35 5.5 2.6 4.4 1.2
36 6.2 2.2 4.5 1.5
37 5.9 3.0 4.2 1.5
38 6.7 3.1 5.6 2.4
39 5.8 2.8 5.1 2.4
40 6.9 3.2 5.7 2.3
41 5.0 2.0 3.5 1.0
42 6.9 3.1 4.9 1.5
43 6.1 2.8 4.7 1.2
44 7.0 3.2 4.7 1.4
45 6.5 3.0 5.2 2.0
46 5.5 2.3 4.0 1.3
47 6.0 2.2 5.0 1.5
48 6.8 3.0 5.5 2.1
49 7.3 2.9 6.3 1.8
50 7.4 2.8 6.1 1.9
;

param y :=
1 1.0
2 -1.0
3 1.0
4 1.0
5 1.0
6 1.0
7 1.0
8 -1.0
9 -1.0
10 1.0
11 1.0
12 1.0
13 1.0
14 1.0
15 -1.0
16 -1.0
17 1.0
18 1.0
19 1.0
20 1.0
21 1.0
22 1.0
23 -1.0
24 -1.0
25 -1.0
26 -1.0
27 1.0
28 -1.0
29 -1.0
30 1.0
31 -1.0
32 1.0
33 -1.0
34 -1.0
35 -1.0
36 -1.0
37 -1.0
38 1.0
39 1.0
40 1.0
41 -1.0
42 -1.0
43 -1.0
44 -1.0
45 1.0
46 -1.0
47 1.0
48 1.0
49 1.0
50 1.0
;

